p cnf 540 919
4  -1  2  0
-7  4  5  0
16  -13  -14  0
-19  16  17  0
22  19  20  0
-25  -22  -23  0
28  25  26  0
37  34  -35  0
-40  37  38  0
43  40  41  0
-46  43  44  0
49  -46  -47  0
52  49  -50  0
55  52  53  0
-58  -55  56  0
-64  -61  -62  0
67  64  -65  0
-73  70  -71  0
-76  73  -74  0
-79  76  -77  0
85  -82  83  0
88  85  -86  0
91  -88  89  0
-94  -91  -92  0
-97  94  95  0
109  -106  107  0
121  -118  -119  0
127  -124  -125  0
130  -127  -128  0
133  -130  -131  0
136  -133  134  0
139  -136  137  0
-142  139  -140  0
145  142  -143  0
-151  -148  -149  0
-154  -151  -152  0
157  154  155  0
163  -160  161  0
166  163  -164  0
169  166  -167  0
175  -172  -173  0
178  -175  176  0
-181  178  179  0
193  190  -191  0
196  193  194  0
-202  199  200  0
-205  -202  -203  0
-208  205  -206  0
-211  -208  -209  0
220  217  218  0
-223  220  -221  0
-226  223  -224  0
229  226  227  0
232  229  -230  0
-235  -232  233  0
-244  241  -242  0
247  -244  245  0
250  247  248  0
-265  262  -263  0
271  -268  269  0
280  -277  278  0
283  280  281  0
-295  292  293  0
301  -298  -299  0
304  301  302  0
307  304  305  0
310  -307  -308  0
313  -310  311  0
-316  -313  314  0
322  319  -320  0
328  325  326  0
331  328  -329  0
-334  -331  -332  0
337  -334  335  0
343  340  -341  0
-346  343  -344  0
-349  -346  347  0
352  -349  350  0
355  -352  -353  0
364  361  -362  0
-367  364  365  0
376  373  374  0
379  -376  -377  0
382  -379  -380  0
-388  385  -386  0
-406  403  404  0
415  -412  -413  0
418  415  -416  0
421  -418  -419  0
-424  421  -422  0
-427  -424  -425  0
-433  -430  -431  0
-436  433  434  0
439  436  -437  0
442  439  440  0
-448  -445  -446  0
-451  448  -449  0
-454  -451  -452  0
-460  457  -458  0
466  463  -464  0
-469  -466  467  0
-478  -475  -476  0
-484  481  482  0
-490  487  -488  0
-493  490  -491  0
496  493  494  0
-502  -499  500  0
505  -502  -503  0
508  505  -506  0
511  -508  -509  0
514  -511  -512  0
523  -520  521  0
-526  523  -524  0
-529  -526  527  0
-535  532  533  0
538  -535  -536  0
5  -1  -2  0
-5  2  3  0
-8  7  -5  0
8  -4  -5  0
-8  5  6  0
-11  10  -8  0
11  -7  8  0
14  -13  11  0
14  -11  -12  0
-17  -13  -14  0
20  -16  17  0
-20  17  -18  0
-23  22  -20  0
23  19  -20  0
-26  -25  23  0
26  -25  -22  0
-29  28  -26  0
29  -28  25  0
29  25  -26  0
32  31  -29  0
32  31  -28  0
-32  -28  -29  0
35  34  -32  0
35  -34  -31  0
35  31  32  0
35  32  33  0
38  37  -35  0
38  37  34  0
38  -34  35  0
38  35  -36  0
-41  -40  -37  0
-41  -37  -38  0
-41  38  39  0
44  -43  -40  0
44  -40  41  0
44  41  -42  0
47  46  44  0
-47  -46  -43  0
-47  -44  -45  0
50  49  -46  0
-53  -52  49  0
-53  -49  50  0
53  50  51  0
56  -55  -52  0
-59  58  55  0
59  -55  -56  0
-59  56  -57  0
-62  -61  59  0
-62  -61  -58  0
62  58  -59  0
-62  -59  60  0
-65  61  -62  0
68  67  65  0
68  -67  -64  0
68  -65  66  0
-71  -70  -68  0
-71  70  67  0
-71  -68  69  0
74  73  -71  0
-77  -76  74  0
-77  -76  73  0
77  73  74  0
80  79  77  0
80  -79  76  0
-80  76  -77  0
80  77  -78  0
83  -82  -79  0
-83  -80  81  0
-86  85  -82  0
-86  -82  83  0
-89  -88  -85  0
89  85  86  0
-92  -91  88  0
-92  -89  90  0
-95  94  92  0
95  94  91  0
-95  -91  -92  0
98  -97  95  0
-101  -100  98  0
-101  100  -97  0
-101  -97  -98  0
-101  98  99  0
104  -103  -101  0
104  103  -100  0
104  100  101  0
107  106  104  0
-107  106  -103  0
-107  103  104  0
-110  -109  106  0
-113  112  -110  0
-113  -112  109  0
-113  -110  111  0
116  115  -113  0
116  -115  -112  0
-116  -112  113  0
-119  -118  -115  0
119  -115  116  0
122  121  119  0
-122  -121  -118  0
-122  -118  -119  0
-122  119  -120  0
125  -124  122  0
-125  -124  121  0
-125  121  -122  0
125  -122  123  0
-128  -127  -125  0
128  -124  -125  0
128  125  -126  0
-131  -130  127  0
-131  -127  128  0
-131  -128  -129  0
134  133  -131  0
-134  130  131  0
-134  -131  -132  0
137  133  -134  0
-137  -134  135  0
140  -139  136  0
-140  -136  137  0
-143  142  139  0
146  -145  -143  0
-146  145  142  0
-146  142  -143  0
149  148  146  0
149  -148  -145  0
-149  -145  -146  0
-152  151  -148  0
152  148  149  0
-152  -149  -150  0
155  -154  -151  0
155  -152  -153  0
158  -157  154  0
-158  154  -155  0
-161  160  158  0
-161  -157  158  0
-161  -158  -159  0
164  163  161  0
164  -163  -160  0
167  166  164  0
-167  163  164  0
-167  164  165  0
-170  -169  167  0
170  -169  166  0
173  -172  -169  0
-173  169  170  0
-173  170  171  0
176  175  173  0
176  -175  172  0
176  172  -173  0
-176  173  174  0
179  -178  -176  0
-182  -181  178  0
-185  -184  182  0
-185  -184  181  0
-185  -182  -183  0
-188  -187  185  0
-188  -187  -184  0
188  184  185  0
191  190  188  0
-191  -190  -187  0
-191  187  188  0
-191  188  189  0
-194  -193  -191  0
-194  -190  191  0
-194  191  192  0
-197  196  -194  0
197  196  193  0
197  193  -194  0
-197  -194  -195  0
-200  197  -198  0
203  -202  -200  0
-203  -202  -199  0
203  199  200  0
203  -200  201  0
-206  205  -203  0
206  205  202  0
206  -203  204  0
-209  208  206  0
209  -208  205  0
209  -205  -206  0
-209  206  207  0
-212  211  209  0
-212  211  -208  0
-212  -208  209  0
-212  209  210  0
-215  214  -212  0
215  214  211  0
215  -211  -212  0
-218  217  -215  0
218  -217  214  0
-218  214  -215  0
218  215  -216  0
-221  -220  218  0
-221  -218  219  0
-224  -223  221  0
-224  220  -221  0
224  -221  -222  0
-227  -226  224  0
-230  229  -227  0
-230  226  -227  0
-230  227  228  0
233  -232  230  0
-233  232  -229  0
233  -230  -231  0
236  -232  -233  0
-239  -238  -235  0
-239  -235  -236  0
242  -241  -239  0
-242  241  238  0
-242  238  -239  0
-242  -239  240  0
245  244  242  0
-245  244  241  0
-248  -247  -245  0
248  247  -244  0
-248  244  -245  0
-248  -245  246  0
251  250  247  0
254  -253  251  0
-254  -253  250  0
-254  -250  -251  0
-257  -256  -254  0
257  256  -253  0
257  253  254  0
-257  -254  -255  0
-260  259  257  0
-260  -259  256  0
260  -256  -257  0
260  -257  258  0
263  262  260  0
263  262  259  0
263  -260  -261  0
266  265  -263  0
266  -265  -262  0
-266  -263  264  0
269  268  -265  0
269  -265  -266  0
269  -266  -267  0
272  -271  -268  0
-272  -268  -269  0
272  269  270  0
-275  274  -272  0
275  -274  -271  0
-275  -272  -273  0
-278  277  275  0
278  277  -274  0
278  -275  -276  0
281  -280  278  0
281  -280  -277  0
281  -277  278  0
-281  -278  279  0
284  283  281  0
284  -280  281  0
284  -281  -282  0
-287  286  -284  0
287  286  283  0
-287  283  -284  0
-287  -284  -285  0
290  -286  -287  0
290  287  -288  0
293  292  -289  0
-293  290  -291  0
-296  -295  -293  0
-296  -295  -292  0
296  293  294  0
-299  -295  -296  0
299  -296  -297  0
302  -301  298  0
-302  298  -299  0
305  304  -301  0
-305  302  303  0
308  -307  -305  0
308  307  304  0
-308  -304  -305  0
-308  -305  -306  0
311  310  307  0
314  313  311  0
314  313  310  0
314  310  -311  0
-317  -316  -314  0
317  -316  -313  0
317  313  -314  0
-320  -319  -317  0
-320  -319  -316  0
-320  316  -317  0
-320  -317  318  0
323  -322  319  0
323  320  -321  0
-326  -325  -323  0
326  -325  322  0
326  -323  324  0
-329  328  -325  0
332  -331  -329  0
332  331  -328  0
332  328  329  0
-332  -329  -330  0
-335  -334  332  0
335  334  -331  0
335  -331  332  0
-338  -337  335  0
338  -337  334  0
338  334  335  0
-341  -337  338  0
341  338  339  0
-344  -340  341  0
-344  341  342  0
347  346  344  0
347  343  344  0
-350  349  -347  0
-350  349  -346  0
-350  346  -347  0
-353  -352  350  0
353  -352  349  0
353  -349  -350  0
356  355  -353  0
356  355  352  0
356  -353  -354  0
359  -358  355  0
-359  356  -357  0
-362  361  359  0
362  361  358  0
362  358  359  0
362  359  360  0
365  364  -361  0
-365  -361  362  0
365  -362  363  0
368  367  -365  0
-368  367  -364  0
368  364  -365  0
368  365  366  0
-371  370  -368  0
-371  -370  -367  0
371  -367  368  0
-371  -368  -369  0
-374  373  -371  0
374  373  370  0
374  -371  -372  0
377  376  374  0
377  -376  -373  0
-377  373  374  0
-377  374  375  0
380  -379  377  0
-380  379  376  0
-380  -376  377  0
-383  -382  -380  0
386  385  -383  0
386  -382  383  0
-386  383  -384  0
-389  -388  386  0
389  -388  -385  0
-389  385  386  0
389  386  387  0
392  391  -389  0
392  -388  389  0
392  389  390  0
395  -394  -392  0
-395  -394  391  0
-395  -391  392  0
395  392  393  0
-398  397  394  0
398  -394  395  0
401  -397  -398  0
401  -398  -399  0
404  403  -401  0
404  403  400  0
-404  400  401  0
404  -401  402  0
-407  -406  -404  0
407  -406  403  0
407  403  -404  0
407  404  -405  0
410  -409  -407  0
410  409  -406  0
410  406  407  0
-410  -407  408  0
413  -412  -410  0
-413  412  409  0
-413  410  -411  0
-416  415  -413  0
416  -415  -412  0
-419  418  415  0
-422  421  419  0
-422  419  -420  0
-425  -424  -422  0
-425  424  421  0
425  421  -422  0
-428  427  -425  0
-428  -424  -425  0
-431  430  -428  0
-431  427  428  0
434  -430  431  0
-434  431  432  0
437  -433  -434  0
437  434  -435  0
440  -439  436  0
440  436  437  0
-440  -437  438  0
-443  442  -439  0
-443  -440  -441  0
446  -445  -443  0
446  -445  -442  0
-446  442  -443  0
-449  448  -445  0
452  -448  449  0
455  -454  -452  0
455  451  452  0
458  457  -454  0
-458  454  -455  0
461  460  458  0
-461  -458  459  0
464  -463  461  0
464  -463  460  0
-464  460  -461  0
467  -466  464  0
467  466  -463  0
-467  -463  464  0
-467  -464  465  0
470  467  468  0
-473  -472  470  0
-473  469  470  0
473  470  -471  0
476  -475  -473  0
-476  -475  -472  0
476  -473  -474  0
479  -478  475  0
-479  -475  -476  0
-482  -481  478  0
-482  -478  -479  0
485  484  -481  0
-485  481  -482  0
485  482  483  0
488  -487  -485  0
-488  484  -485  0
488  -485  -486  0
491  490  488  0
-491  487  -488  0
-494  -493  -491  0
-494  493  490  0
497  -496  -493  0
500  -499  497  0
500  496  -497  0
503  -502  -500  0
503  -502  -499  0
-503  -500  -501  0
-506  -505  -503  0
-506  503  504  0
-509  -508  -506  0
509  -505  -506  0
-512  -511  509  0
-512  -508  -509  0
515  514  511  0
-518  -517  515  0
-518  -515  -516  0
521  -520  -518  0
-521  517  518  0
-524  523  -521  0
-524  523  520  0
-524  521  522  0
-527  526  524  0
-527  523  524  0
-527  524  525  0
530  529  527  0
-530  526  -527  0
-530  527  -528  0
-533  -529  530  0
536  -535  533  0
536  -535  532  0
536  532  -533  0
-536  -533  534  0
539  -538  -536  0
539  -538  535  0
-539  -535  -536  0
-6  -5  -3  0
-9  -8  6  0
-9  -8  5  0
9  5  -6  0
-12  11  -9  0
15  14  12  0
-18  -17  -15  0
18  17  14  0
21  20  -18  0
24  -23  -21  0
-27  -26  -24  0
27  -26  -23  0
30  -29  -27  0
30  29  -26  0
30  26  27  0
33  -32  29  0
36  35  32  0
-39  -38  -36  0
39  -38  35  0
-39  -35  -36  0
42  41  -39  0
-42  38  39  0
45  44  -42  0
-48  47  -45  0
-48  47  44  0
-48  44  -45  0
51  -50  48  0
51  50  47  0
-51  -47  48  0
-54  -53  51  0
54  -53  50  0
54  50  -51  0
57  -56  -53  0
-60  -59  -57  0
63  62  59  0
63  -59  60  0
-66  -65  -63  0
-66  -65  -62  0
-69  -68  -65  0
-72  -71  -68  0
-72  -68  69  0
75  -74  72  0
-75  -71  -72  0
78  77  75  0
-78  77  74  0
-78  -74  75  0
-81  -80  77  0
81  -77  -78  0
-84  83  81  0
84  83  -80  0
-87  86  83  0
87  -83  -84  0
90  -89  -87  0
90  -89  86  0
-90  86  -87  0
93  -92  -90  0
-93  92  89  0
96  95  93  0
96  -95  92  0
-96  92  -93  0
-99  98  -96  0
-99  98  -95  0
99  -95  96  0
102  -101  99  0
-102  -101  98  0
-105  -104  -102  0
-105  -104  101  0
108  107  105  0
-108  -107  104  0
111  110  107  0
114  113  110  0
114  -110  -111  0
-117  -116  114  0
-117  -113  -114  0
120  -119  -117  0
-120  119  116  0
123  -122  120  0
123  122  119  0
-123  -119  120  0
-126  125  123  0
126  -125  122  0
126  122  -123  0
129  128  -126  0
132  -131  128  0
-132  128  129  0
-138  -134  135  0
-141  140  -138  0
141  -137  -138  0
-144  143  141  0
-144  -143  140  0
144  -140  -141  0
147  -146  143  0
-147  143  -144  0
150  149  -147  0
150  -146  -147  0
153  152  -150  0
156  155  -153  0
-156  -155  152  0
156  152  153  0
-159  -158  -156  0
-159  -158  -155  0
-159  -155  -156  0
162  -158  159  0
-165  164  -162  0
165  -164  -161  0
-165  -161  -162  0
-168  -167  -165  0
-168  -167  164  0
168  164  -165  0
-171  -170  -167  0
171  167  -168  0
174  -173  171  0
174  -173  170  0
-174  170  -171  0
-177  173  -174  0
180  179  177  0
180  179  176  0
-180  176  -177  0
-186  -185  -182  0
186  -182  -183  0
189  188  -185  0
192  191  189  0
195  194  -192  0
195  191  192  0
198  -197  194  0
198  194  195  0
-201  -200  -198  0
-201  -197  198  0
204  203  200  0
-204  200  -201  0
-207  -206  -203  0
-207  -203  204  0
-210  -209  -207  0
-210  -209  206  0
-213  212  -209  0
-216  -215  -213  0
-216  -215  212  0
-219  218  215  0
219  -215  216  0
-222  221  219  0
-222  221  -218  0
225  -224  -222  0
225  -221  -222  0
-228  227  225  0
-228  -224  225  0
231  230  -227  0
-231  -227  228  0
234  -233  -231  0
-234  230  -231  0
240  -239  236  0
-240  -236  237  0
-243  -242  239  0
-243  239  240  0
-246  -242  243  0
249  248  246  0
-249  245  -246  0
-252  251  249  0
252  -248  249  0
-255  254  252  0
255  -254  -251  0
258  -257  255  0
258  -254  -255  0
261  -260  258  0
-261  257  -258  0
-264  263  -261  0
-264  263  -260  0
-264  -260  -261  0
267  -266  264  0
-270  269  267  0
-270  -269  -266  0
270  266  267  0
273  -272  -270  0
273  -269  -270  0
276  -275  273  0
-276  275  -272  0
276  272  273  0
279  278  -276  0
-282  281  -278  0
-282  -278  279  0
-285  284  282  0
285  -284  -281  0
285  281  282  0
-288  287  284  0
-288  -284  -285  0
-291  -290  288  0
-291  287  -288  0
-294  -293  291  0
-294  -293  -290  0
-294  -290  -291  0
-297  -296  293  0
300  -299  297  0
300  -299  -296  0
-303  302  300  0
-303  299  -300  0
306  305  -302  0
309  -308  305  0
309  -305  306  0
312  311  -309  0
-312  -308  -309  0
315  -314  312  0
315  -314  -311  0
315  -311  -312  0
318  317  -315  0
-318  314  315  0
321  -320  -318  0
-321  -317  318  0
324  323  321  0
324  -323  320  0
-327  -326  -324  0
327  326  -323  0
330  329  327  0
-330  -329  -326  0
333  -332  329  0
333  -329  330  0
336  -335  333  0
336  335  332  0
339  338  -335  0
-339  -335  -336  0
342  341  339  0
-342  341  338  0
-342  -338  339  0
348  -344  345  0
-351  -350  347  0
-351  -347  348  0
357  -356  -353  0
-357  353  354  0
-360  359  356  0
-360  -356  357  0
-363  362  360  0
-363  362  -359  0
366  -365  362  0
-369  368  -366  0
369  368  -365  0
-369  -365  366  0
-372  371  368  0
-378  377  -374  0
-378  374  -375  0
384  -383  381  0
-384  -380  -381  0
-387  386  -384  0
387  -386  -383  0
390  389  -387  0
-393  -392  -389  0
-396  395  393  0
396  392  393  0
399  -398  -396  0
-402  401  399  0
-402  398  -399  0
-405  404  402  0
-405  404  -401  0
405  401  -402  0
408  407  404  0
408  -404  -405  0
-411  410  -408  0
-411  -407  408  0
414  -413  411  0
-414  -413  410  0
414  -410  -411  0
-417  416  -414  0
417  -416  -413  0
-417  413  -414  0
-420  -419  416  0
-423  422  420  0
-423  -422  -419  0
-426  -425  -423  0
-426  425  -422  0
426  422  -423  0
-429  425  -426  0
-435  -434  -432  0
435  -434  431  0
-438  -437  435  0
438  -434  435  0
441  440  438  0
441  440  -437  0
-441  437  438  0
-444  443  -440  0
447  -446  444  0
-450  -449  -447  0
450  -446  -447  0
453  449  -450  0
456  -455  -453  0
-456  455  -452  0
456  452  -453  0
462  -461  459  0
462  461  458  0
-462  458  -459  0
465  -464  462  0
465  -461  -462  0
471  470  -467  0
-471  467  -468  0
474  -473  -471  0
-474  473  470  0
474  470  -471  0
-477  -476  473  0
-477  -473  474  0
-480  476  477  0
-483  482  -480  0
-483  482  -479  0
-486  485  483  0
-486  485  482  0
-489  -488  485  0
492  -491  489  0
-495  -494  491  0
-498  497  -495  0
-498  494  -495  0
-501  -500  -498  0
501  497  -498  0
504  -503  -501  0
504  503  -500  0
-507  -506  503  0
507  503  504  0
-510  -509  -506  0
-513  512  -510  0
-513  -512  509  0
-516  515  513  0
519  -518  516  0
-519  -518  515  0
522  -521  518  0
522  518  -519  0
525  -524  -522  0
525  521  -522  0
-528  -527  525  0
-528  527  -524  0
-528  -524  525  0
531  530  528  0
531  -530  -527  0
-531  -527  528  0
-534  -533  -531  0
534  530  -531  0
537  533  -534  0
-540  -539  -537  0
-540  536  -537  0
